32739 41257 
32645 41306 
32556 41317 
31613 41653 
32522 41345 
32477 41427 
32077 41552 
31534 41763 
31683 41639 
31134 41888 
30541 41900 
31859 41638 
31539 41656 
32325 41446 
32191 41477 
29764 41932 
32213 41457 
